[TITLE]
Simulation hydraulique - Reseau 22/05/2026

[JUNCTIONS]
;ID          Elevation   Demand
 69fb35047be14add6fe2c42d 20.00       10.00       ;
 69fb35a87be14add6fe2c430 18.00       12.00       ;
 69fb36547be14add6fe2c433 16.00       12.00       ;
 69fb36a67be14add6fe2c436 16.00       12.00       ;
 69fb4b8ef178caf6748faa32 16.00       10.00       ;
 69fb4c05f71c654d93d691fd 14.00       12.00       ;
 69fceeb04f40f7dfcef97f4e 10.00       10.00       ;
 69fcef260c4f52ecb4b5dd89 10.00       10.00       ;
 69fceff30c4f52ecb4b5dde0 10.00       10.00       ;
 69fcf0880c4f52ecb4b5de19 10.00       10.00       ;
 69fcf1140c4f52ecb4b5de3a 10.00       10.00       ;
 69fcf1a10c4f52ecb4b5de43 10.00       10.00       ;
 69fcf20a0c4f52ecb4b5de70 10.00       10.00       ;
 69fcf2420c4f52ecb4b5de73 10.00       10.00       ;
 69fd0e16c85f7c64c15a5d99 10.00       10.00       ;

[RESERVOIRS]
;ID          Head

[PIPES]
;ID          Node1      Node2      Length    Diameter  Roughness
 Conduite_1 69fb35047be14add6fe2c42d 69fb35a87be14add6fe2c430 124.13230665533452 350       0.0015     ;
 Conduite_2 69fb35a87be14add6fe2c430 69fb36547be14add6fe2c433 287.7445738456915 300       0.26       ;
 Conduite_3 69fb36547be14add6fe2c433 69fb4c05f71c654d93d691fd 341.8120589820736 250       0.0015     ;
 Conduite_4 69fb36547be14add6fe2c433 69fb36a67be14add6fe2c436 355.7306768246958 200       0.0015     ;
 Conduite_5 69fb36a67be14add6fe2c436 69fb4b8ef178caf6748faa32 160.9384558032542 250       0.0015     ;
 Conduite_6 69fb4b8ef178caf6748faa32 69fb4c05f71c654d93d691fd 307.1080969265629 250       0.0015     ;
 Conduite_7 69fb4c05f71c654d93d691fd 69fceeb04f40f7dfcef97f4e 130.07414023865803 200       0.0015     ;
 Conduite_8 69fceeb04f40f7dfcef97f4e 69fcef260c4f52ecb4b5dd89 117.59557005990341 200       0.0015     ;
 Conduite_9 69fcef260c4f52ecb4b5dd89 69fcf20a0c4f52ecb4b5de70 290.06748182744894 200       0.0015     ;
 Conduite_10 69fcef260c4f52ecb4b5dd89 69fceff30c4f52ecb4b5dde0 194.03209667301462 200       0.0015     ;
 Conduite_11 69fcef260c4f52ecb4b5dd89 69fcf0880c4f52ecb4b5de19 181.6303869314099 200       0.26       ;
 Conduite_12 69fcf20a0c4f52ecb4b5de70 69fceff30c4f52ecb4b5dde0 147.4924310116441 200       0.0015     ;
 Conduite_13 69fceff30c4f52ecb4b5dde0 69fcf0880c4f52ecb4b5de19 148.13443600249315 200       0.0015     ;
 Conduite_15 69fcf1140c4f52ecb4b5de3a 69fcf1a10c4f52ecb4b5de43 181.71553676821236 200       0.0015     ;
 Conduite_14 69fcf0880c4f52ecb4b5de19 69fcf1140c4f52ecb4b5de3a 206.94630207209437 200       0.0015     ;
 Conduite_16 69fceeb04f40f7dfcef97f4e 69fcf1140c4f52ecb4b5de3a 215.30630200708447 200       0.0015     ;
 Conduite_17 69fcf1140c4f52ecb4b5de3a 69fcf2420c4f52ecb4b5de73 115.97486387227512 200       0.26       ;
 Conduite_18 69fcf2420c4f52ecb4b5de73 69fd0e16c85f7c64c15a5d99 211.6876843471798 200       0.0015     ;

[OPTIONS]
UNITS           LPS
HEADLOSS        D-W

[REPORT]
STATUS          YES
SUMMARY         YES
NODES           ALL
LINKS           ALL

[END]